2000 1295568 13_2000_1000_3085
1 804 724
2 603 543
3 1143 963
4 381 321
5 635 535
6 402 362
7 635 535
8 508 428
9 2010 1810
10 402 362
11 2010 1810
12 603 543
13 889 749
14 635 535
15 1206 1086
16 1016 856
17 402 362
18 635 535
19 1270 1070
20 635 535
21 254 214
22 635 535
23 635 535
24 1016 856
25 603 543
26 762 642
27 1016 856
28 762 642
29 889 749
30 1016 856
31 508 428
32 1005 905
33 201 181
34 402 362
35 1005 905
36 1608 1448
37 1270 1070
38 804 724
39 804 724
40 402 362
41 508 428
42 254 214
43 1206 1086
44 762 642
45 1005 905
46 889 749
47 635 535
48 254 214
49 381 321
50 402 362
51 254 214
52 1608 1448
53 889 749
54 1809 1629
55 635 535
56 635 535
57 508 428
58 508 428
59 1016 856
60 804 724
61 1005 905
62 1005 905
63 1270 1070
64 381 321
65 402 362
66 804 724
67 804 724
68 402 362
69 635 535
70 1016 856
71 1608 1448
72 1206 1086
73 1206 1086
74 603 543
75 889 749
76 1809 1629
77 1143 963
78 1143 963
79 1608 1448
80 381 321
81 1270 1070
82 508 428
83 1005 905
84 1809 1629
85 1608 1448
86 201 181
87 762 642
88 804 724
89 804 724
90 1016 856
91 1206 1086
92 635 535
93 635 535
94 1608 1448
95 635 535
96 1407 1267
97 804 724
98 1143 963
99 2010 1810
100 603 543
101 1016 856
102 1270 1070
103 1608 1448
104 508 428
105 127 107
106 635 535
107 1206 1086
108 402 362
109 1143 963
110 508 428
111 635 535
112 1407 1267
113 1407 1267
114 1407 1267
115 1016 856
116 1016 856
117 804 724
118 1407 1267
119 254 214
120 1143 963
121 1809 1629
122 1016 856
123 635 535
124 762 642
125 762 642
126 127 107
127 1608 1448
128 508 428
129 762 642
130 127 107
131 1016 856
132 804 724
133 1608 1448
134 254 214
135 2010 1810
136 1206 1086
137 402 362
138 127 107
139 1270 1070
140 1016 856
141 1809 1629
142 508 428
143 381 321
144 508 428
145 635 535
146 508 428
147 201 181
148 1143 963
149 254 214
150 127 107
151 1016 856
152 603 543
153 1270 1070
154 762 642
155 2010 1810
156 889 749
157 762 642
158 201 181
159 201 181
160 635 535
161 889 749
162 201 181
163 1407 1267
164 201 181
165 1005 905
166 1016 856
167 1206 1086
168 2010 1810
169 508 428
170 1016 856
171 1407 1267
172 1005 905
173 508 428
174 1809 1629
175 1005 905
176 1809 1629
177 2010 1810
178 1005 905
179 635 535
180 127 107
181 762 642
182 1206 1086
183 201 181
184 2010 1810
185 1206 1086
186 1206 1086
187 1005 905
188 635 535
189 1809 1629
190 804 724
191 1206 1086
192 1016 856
193 1206 1086
194 1143 963
195 889 749
196 254 214
197 2010 1810
198 1206 1086
199 381 321
200 1016 856
201 381 321
202 381 321
203 381 321
204 603 543
205 1270 1070
206 889 749
207 1608 1448
208 804 724
209 889 749
210 1016 856
211 635 535
212 1270 1070
213 1407 1267
214 508 428
215 1005 905
216 1005 905
217 508 428
218 254 214
219 1407 1267
220 635 535
221 201 181
222 1206 1086
223 762 642
224 1270 1070
225 402 362
226 127 107
227 201 181
228 381 321
229 603 543
230 762 642
231 635 535
232 1407 1267
233 804 724
234 762 642
235 603 543
236 1206 1086
237 508 428
238 1143 963
239 603 543
240 127 107
241 2010 1810
242 804 724
243 635 535
244 254 214
245 635 535
246 1016 856
247 508 428
248 1809 1629
249 603 543
250 1005 905
251 889 749
252 1005 905
253 1608 1448
254 127 107
255 762 642
256 381 321
257 762 642
258 402 362
259 1206 1086
260 1206 1086
261 1005 905
262 1270 1070
263 889 749
264 1407 1267
265 603 543
266 889 749
267 1270 1070
268 127 107
269 1608 1448
270 1206 1086
271 1407 1267
272 508 428
273 1608 1448
274 889 749
275 2010 1810
276 201 181
277 402 362
278 1206 1086
279 1143 963
280 1143 963
281 1270 1070
282 1143 963
283 127 107
284 1206 1086
285 804 724
286 1407 1267
287 508 428
288 603 543
289 1407 1267
290 2010 1810
291 1270 1070
292 1809 1629
293 254 214
294 508 428
295 889 749
296 889 749
297 2010 1810
298 1016 856
299 201 181
300 1608 1448
301 804 724
302 127 107
303 1206 1086
304 1608 1448
305 381 321
306 635 535
307 508 428
308 127 107
309 402 362
310 635 535
311 889 749
312 254 214
313 804 724
314 804 724
315 127 107
316 1809 1629
317 603 543
318 2010 1810
319 2010 1810
320 381 321
321 254 214
322 889 749
323 889 749
324 508 428
325 1016 856
326 402 362
327 381 321
328 1270 1070
329 2010 1810
330 1016 856
331 1206 1086
332 1016 856
333 402 362
334 2010 1810
335 1608 1448
336 1005 905
337 1407 1267
338 1608 1448
339 1005 905
340 201 181
341 2010 1810
342 402 362
343 2010 1810
344 1270 1070
345 201 181
346 889 749
347 2010 1810
348 508 428
349 1005 905
350 804 724
351 254 214
352 2010 1810
353 2010 1810
354 1206 1086
355 2010 1810
356 762 642
357 889 749
358 762 642
359 508 428
360 1143 963
361 1005 905
362 889 749
363 127 107
364 402 362
365 402 362
366 402 362
367 127 107
368 1016 856
369 635 535
370 381 321
371 1608 1448
372 889 749
373 402 362
374 603 543
375 804 724
376 1270 1070
377 1016 856
378 1270 1070
379 201 181
380 603 543
381 1206 1086
382 381 321
383 1809 1629
384 1206 1086
385 508 428
386 1143 963
387 1270 1070
388 201 181
389 381 321
390 1270 1070
391 127 107
392 1809 1629
393 603 543
394 1809 1629
395 1143 963
396 381 321
397 1206 1086
398 508 428
399 635 535
400 1608 1448
401 1809 1629
402 1407 1267
403 762 642
404 1407 1267
405 1143 963
406 127 107
407 127 107
408 201 181
409 1143 963
410 762 642
411 1016 856
412 402 362
413 1016 856
414 1407 1267
415 508 428
416 381 321
417 2010 1810
418 508 428
419 381 321
420 201 181
421 508 428
422 508 428
423 254 214
424 402 362
425 201 181
426 635 535
427 381 321
428 2010 1810
429 1005 905
430 1407 1267
431 1608 1448
432 804 724
433 603 543
434 1407 1267
435 1206 1086
436 603 543
437 635 535
438 1143 963
439 1016 856
440 635 535
441 201 181
442 127 107
443 2010 1810
444 1005 905
445 127 107
446 1206 1086
447 635 535
448 381 321
449 1407 1267
450 1206 1086
451 889 749
452 762 642
453 1608 1448
454 889 749
455 127 107
456 1005 905
457 1206 1086
458 1809 1629
459 1407 1267
460 635 535
461 1407 1267
462 1005 905
463 508 428
464 1206 1086
465 1270 1070
466 889 749
467 804 724
468 1005 905
469 1407 1267
470 508 428
471 1206 1086
472 603 543
473 402 362
474 201 181
475 1270 1070
476 1005 905
477 254 214
478 254 214
479 1608 1448
480 1407 1267
481 381 321
482 381 321
483 381 321
484 1270 1070
485 1809 1629
486 1809 1629
487 603 543
488 1005 905
489 603 543
490 1809 1629
491 127 107
492 1407 1267
493 889 749
494 1206 1086
495 402 362
496 1005 905
497 1143 963
498 1608 1448
499 762 642
500 402 362
501 1143 963
502 508 428
503 889 749
504 201 181
505 1005 905
506 1005 905
507 1608 1448
508 1608 1448
509 1608 1448
510 1407 1267
511 1407 1267
512 1206 1086
513 635 535
514 1809 1629
515 402 362
516 402 362
517 1407 1267
518 2010 1810
519 254 214
520 889 749
521 1143 963
522 1143 963
523 254 214
524 1608 1448
525 635 535
526 254 214
527 1016 856
528 603 543
529 402 362
530 1809 1629
531 381 321
532 2010 1810
533 254 214
534 254 214
535 1005 905
536 254 214
537 804 724
538 603 543
539 1270 1070
540 1206 1086
541 603 543
542 508 428
543 635 535
544 1016 856
545 1809 1629
546 889 749
547 127 107
548 1016 856
549 1206 1086
550 201 181
551 201 181
552 1206 1086
553 1016 856
554 1608 1448
555 603 543
556 508 428
557 889 749
558 603 543
559 1608 1448
560 254 214
561 1407 1267
562 762 642
563 1608 1448
564 381 321
565 1608 1448
566 381 321
567 1143 963
568 1016 856
569 1206 1086
570 201 181
571 1407 1267
572 1005 905
573 1206 1086
574 762 642
575 1143 963
576 381 321
577 402 362
578 1809 1629
579 2010 1810
580 804 724
581 254 214
582 201 181
583 508 428
584 254 214
585 2010 1810
586 381 321
587 2010 1810
588 635 535
589 402 362
590 1206 1086
591 201 181
592 381 321
593 1143 963
594 381 321
595 402 362
596 889 749
597 1143 963
598 1143 963
599 381 321
600 1143 963
601 1407 1267
602 889 749
603 1016 856
604 201 181
605 1407 1267
606 603 543
607 1407 1267
608 804 724
609 635 535
610 889 749
611 1809 1629
612 254 214
613 201 181
614 381 321
615 127 107
616 254 214
617 804 724
618 889 749
619 402 362
620 762 642
621 508 428
622 1206 1086
623 1407 1267
624 127 107
625 508 428
626 1206 1086
627 635 535
628 1608 1448
629 381 321
630 1809 1629
631 1809 1629
632 804 724
633 2010 1810
634 381 321
635 127 107
636 603 543
637 1608 1448
638 1270 1070
639 1608 1448
640 1005 905
641 1005 905
642 1206 1086
643 1809 1629
644 1016 856
645 1016 856
646 1143 963
647 603 543
648 603 543
649 254 214
650 1608 1448
651 254 214
652 1143 963
653 254 214
654 381 321
655 1270 1070
656 2010 1810
657 762 642
658 1005 905
659 889 749
660 1809 1629
661 1270 1070
662 804 724
663 603 543
664 635 535
665 254 214
666 402 362
667 254 214
668 1407 1267
669 762 642
670 603 543
671 1206 1086
672 1608 1448
673 1143 963
674 1143 963
675 1407 1267
676 635 535
677 381 321
678 402 362
679 1016 856
680 1608 1448
681 804 724
682 804 724
683 402 362
684 1016 856
685 201 181
686 804 724
687 762 642
688 201 181
689 1016 856
690 127 107
691 1407 1267
692 381 321
693 1809 1629
694 1270 1070
695 603 543
696 1407 1267
697 762 642
698 603 543
699 254 214
700 889 749
701 603 543
702 889 749
703 889 749
704 804 724
705 1608 1448
706 1005 905
707 1270 1070
708 635 535
709 889 749
710 127 107
711 1407 1267
712 804 724
713 1143 963
714 381 321
715 201 181
716 635 535
717 127 107
718 1005 905
719 1809 1629
720 1809 1629
721 254 214
722 1143 963
723 1407 1267
724 508 428
725 254 214
726 1206 1086
727 603 543
728 762 642
729 1407 1267
730 254 214
731 1206 1086
732 201 181
733 1270 1070
734 127 107
735 402 362
736 127 107
737 1143 963
738 889 749
739 402 362
740 508 428
741 1005 905
742 1608 1448
743 1143 963
744 635 535
745 1005 905
746 508 428
747 1143 963
748 1016 856
749 1016 856
750 127 107
751 1005 905
752 1407 1267
753 889 749
754 1005 905
755 508 428
756 1016 856
757 1206 1086
758 1407 1267
759 1809 1629
760 889 749
761 804 724
762 381 321
763 201 181
764 603 543
765 635 535
766 1016 856
767 201 181
768 804 724
769 1407 1267
770 804 724
771 127 107
772 804 724
773 381 321
774 508 428
775 1270 1070
776 762 642
777 1143 963
778 804 724
779 2010 1810
780 1016 856
781 804 724
782 1809 1629
783 603 543
784 1608 1448
785 889 749
786 1005 905
787 381 321
788 127 107
789 804 724
790 1005 905
791 635 535
792 381 321
793 254 214
794 2010 1810
795 201 181
796 1206 1086
797 1016 856
798 603 543
799 635 535
800 127 107
801 201 181
802 635 535
803 1143 963
804 1005 905
805 1270 1070
806 1016 856
807 804 724
808 254 214
809 1005 905
810 2010 1810
811 254 214
812 1608 1448
813 381 321
814 1016 856
815 381 321
816 889 749
817 603 543
818 603 543
819 804 724
820 762 642
821 402 362
822 603 543
823 889 749
824 402 362
825 1206 1086
826 201 181
827 1270 1070
828 508 428
829 1005 905
830 1016 856
831 1143 963
832 1143 963
833 1270 1070
834 1143 963
835 635 535
836 1016 856
837 381 321
838 635 535
839 1407 1267
840 804 724
841 1143 963
842 508 428
843 635 535
844 2010 1810
845 1407 1267
846 381 321
847 1809 1629
848 2010 1810
849 201 181
850 635 535
851 804 724
852 889 749
853 508 428
854 508 428
855 201 181
856 1809 1629
857 201 181
858 889 749
859 381 321
860 381 321
861 1016 856
862 889 749
863 1005 905
864 1005 905
865 381 321
866 804 724
867 1270 1070
868 201 181
869 254 214
870 889 749
871 762 642
872 201 181
873 254 214
874 762 642
875 635 535
876 635 535
877 402 362
878 1206 1086
879 762 642
880 2010 1810
881 254 214
882 1016 856
883 1005 905
884 1407 1267
885 804 724
886 402 362
887 201 181
888 127 107
889 1143 963
890 1270 1070
891 889 749
892 889 749
893 381 321
894 889 749
895 1005 905
896 603 543
897 2010 1810
898 508 428
899 603 543
900 2010 1810
901 603 543
902 254 214
903 603 543
904 1407 1267
905 804 724
906 1206 1086
907 1143 963
908 1016 856
909 508 428
910 1143 963
911 2010 1810
912 508 428
913 1143 963
914 254 214
915 1270 1070
916 254 214
917 1270 1070
918 804 724
919 402 362
920 201 181
921 1809 1629
922 804 724
923 1005 905
924 1270 1070
925 1005 905
926 889 749
927 127 107
928 508 428
929 804 724
930 603 543
931 635 535
932 635 535
933 508 428
934 603 543
935 381 321
936 201 181
937 201 181
938 402 362
939 1143 963
940 381 321
941 127 107
942 381 321
943 635 535
944 127 107
945 127 107
946 381 321
947 127 107
948 804 724
949 254 214
950 635 535
951 1270 1070
952 402 362
953 1005 905
954 1206 1086
955 1143 963
956 508 428
957 1016 856
958 508 428
959 1270 1070
960 1270 1070
961 889 749
962 1005 905
963 804 724
964 254 214
965 201 181
966 1809 1629
967 1005 905
968 1270 1070
969 1206 1086
970 1407 1267
971 254 214
972 1005 905
973 1270 1070
974 127 107
975 254 214
976 804 724
977 635 535
978 254 214
979 635 535
980 1206 1086
981 508 428
982 381 321
983 1407 1267
984 1016 856
985 254 214
986 804 724
987 889 749
988 804 724
989 635 535
990 1005 905
991 1016 856
992 603 543
993 402 362
994 635 535
995 2010 1810
996 127 107
997 402 362
998 635 535
999 402 362
1000 1407 1267
1001 1016 856
1002 603 543
1003 127 107
1004 201 181
1005 254 214
1006 1608 1448
1007 1608 1448
1008 1005 905
1009 1608 1448
1010 1270 1070
1011 127 107
1012 381 321
1013 2010 1810
1014 635 535
1015 254 214
1016 508 428
1017 2010 1810
1018 804 724
1019 402 362
1020 1016 856
1021 1270 1070
1022 402 362
1023 381 321
1024 1143 963
1025 127 107
1026 804 724
1027 1005 905
1028 127 107
1029 1143 963
1030 2010 1810
1031 381 321
1032 1407 1267
1033 1143 963
1034 254 214
1035 1016 856
1036 603 543
1037 603 543
1038 1143 963
1039 1407 1267
1040 127 107
1041 1143 963
1042 402 362
1043 1005 905
1044 635 535
1045 254 214
1046 1270 1070
1047 804 724
1048 254 214
1049 804 724
1050 889 749
1051 1407 1267
1052 402 362
1053 1407 1267
1054 1407 1267
1055 635 535
1056 508 428
1057 1005 905
1058 1407 1267
1059 508 428
1060 402 362
1061 508 428
1062 1016 856
1063 381 321
1064 1809 1629
1065 127 107
1066 889 749
1067 762 642
1068 201 181
1069 1206 1086
1070 254 214
1071 1809 1629
1072 1407 1267
1073 1005 905
1074 2010 1810
1075 1270 1070
1076 635 535
1077 1270 1070
1078 889 749
1079 381 321
1080 402 362
1081 635 535
1082 381 321
1083 804 724
1084 508 428
1085 635 535
1086 1005 905
1087 2010 1810
1088 201 181
1089 254 214
1090 762 642
1091 1206 1086
1092 804 724
1093 889 749
1094 508 428
1095 804 724
1096 1206 1086
1097 889 749
1098 127 107
1099 1270 1070
1100 603 543
1101 1407 1267
1102 508 428
1103 1809 1629
1104 1016 856
1105 1143 963
1106 201 181
1107 508 428
1108 127 107
1109 508 428
1110 508 428
1111 381 321
1112 402 362
1113 1270 1070
1114 1016 856
1115 381 321
1116 1016 856
1117 2010 1810
1118 1270 1070
1119 762 642
1120 1206 1086
1121 1206 1086
1122 635 535
1123 762 642
1124 635 535
1125 1005 905
1126 1809 1629
1127 1016 856
1128 2010 1810
1129 201 181
1130 762 642
1131 1270 1070
1132 889 749
1133 1016 856
1134 804 724
1135 2010 1810
1136 889 749
1137 381 321
1138 1608 1448
1139 2010 1810
1140 1206 1086
1141 635 535
1142 1270 1070
1143 1270 1070
1144 1608 1448
1145 1005 905
1146 889 749
1147 1407 1267
1148 201 181
1149 1809 1629
1150 508 428
1151 254 214
1152 1270 1070
1153 1206 1086
1154 804 724
1155 201 181
1156 603 543
1157 1206 1086
1158 127 107
1159 1270 1070
1160 1608 1448
1161 1809 1629
1162 381 321
1163 1016 856
1164 254 214
1165 508 428
1166 762 642
1167 1206 1086
1168 762 642
1169 1608 1448
1170 1005 905
1171 1270 1070
1172 254 214
1173 635 535
1174 1608 1448
1175 603 543
1176 127 107
1177 2010 1810
1178 254 214
1179 1407 1267
1180 201 181
1181 603 543
1182 635 535
1183 2010 1810
1184 1016 856
1185 889 749
1186 402 362
1187 1206 1086
1188 635 535
1189 603 543
1190 201 181
1191 889 749
1192 381 321
1193 1206 1086
1194 635 535
1195 1143 963
1196 1016 856
1197 635 535
1198 381 321
1199 1143 963
1200 508 428
1201 402 362
1202 402 362
1203 1270 1070
1204 1016 856
1205 635 535
1206 2010 1810
1207 1407 1267
1208 381 321
1209 2010 1810
1210 127 107
1211 1143 963
1212 1608 1448
1213 1206 1086
1214 603 543
1215 254 214
1216 201 181
1217 508 428
1218 508 428
1219 402 362
1220 889 749
1221 508 428
1222 2010 1810
1223 635 535
1224 1143 963
1225 762 642
1226 1809 1629
1227 1016 856
1228 201 181
1229 1206 1086
1230 1608 1448
1231 508 428
1232 1608 1448
1233 762 642
1234 889 749
1235 1206 1086
1236 889 749
1237 1407 1267
1238 381 321
1239 762 642
1240 201 181
1241 402 362
1242 635 535
1243 402 362
1244 254 214
1245 1005 905
1246 1270 1070
1247 127 107
1248 508 428
1249 2010 1810
1250 635 535
1251 508 428
1252 635 535
1253 2010 1810
1254 804 724
1255 254 214
1256 635 535
1257 762 642
1258 635 535
1259 201 181
1260 603 543
1261 127 107
1262 381 321
1263 603 543
1264 1005 905
1265 1270 1070
1266 254 214
1267 1016 856
1268 1407 1267
1269 2010 1810
1270 1608 1448
1271 1016 856
1272 254 214
1273 1407 1267
1274 254 214
1275 889 749
1276 1143 963
1277 381 321
1278 2010 1810
1279 1407 1267
1280 127 107
1281 1608 1448
1282 127 107
1283 2010 1810
1284 1143 963
1285 1407 1267
1286 254 214
1287 762 642
1288 127 107
1289 2010 1810
1290 603 543
1291 201 181
1292 889 749
1293 1270 1070
1294 201 181
1295 1270 1070
1296 1270 1070
1297 1809 1629
1298 1270 1070
1299 254 214
1300 254 214
1301 1608 1448
1302 1270 1070
1303 402 362
1304 635 535
1305 1608 1448
1306 254 214
1307 762 642
1308 1608 1448
1309 254 214
1310 1016 856
1311 508 428
1312 201 181
1313 1809 1629
1314 402 362
1315 889 749
1316 127 107
1317 1005 905
1318 1005 905
1319 2010 1810
1320 1809 1629
1321 889 749
1322 381 321
1323 762 642
1324 381 321
1325 1809 1629
1326 603 543
1327 2010 1810
1328 254 214
1329 381 321
1330 127 107
1331 1016 856
1332 127 107
1333 381 321
1334 1143 963
1335 381 321
1336 1809 1629
1337 127 107
1338 508 428
1339 889 749
1340 201 181
1341 1270 1070
1342 1005 905
1343 1143 963
1344 201 181
1345 1407 1267
1346 2010 1810
1347 1206 1086
1348 127 107
1349 2010 1810
1350 1809 1629
1351 889 749
1352 1016 856
1353 635 535
1354 254 214
1355 1608 1448
1356 1270 1070
1357 254 214
1358 381 321
1359 402 362
1360 2010 1810
1361 2010 1810
1362 254 214
1363 254 214
1364 254 214
1365 603 543
1366 1005 905
1367 1809 1629
1368 1270 1070
1369 762 642
1370 508 428
1371 381 321
1372 1407 1267
1373 201 181
1374 1016 856
1375 127 107
1376 635 535
1377 402 362
1378 1005 905
1379 1407 1267
1380 2010 1810
1381 889 749
1382 1005 905
1383 381 321
1384 603 543
1385 1809 1629
1386 762 642
1387 201 181
1388 381 321
1389 201 181
1390 2010 1810
1391 762 642
1392 1608 1448
1393 127 107
1394 127 107
1395 762 642
1396 1407 1267
1397 1206 1086
1398 635 535
1399 254 214
1400 1143 963
1401 254 214
1402 1270 1070
1403 1005 905
1404 381 321
1405 1005 905
1406 889 749
1407 381 321
1408 254 214
1409 201 181
1410 804 724
1411 254 214
1412 1270 1070
1413 1206 1086
1414 1270 1070
1415 804 724
1416 1206 1086
1417 508 428
1418 889 749
1419 635 535
1420 254 214
1421 508 428
1422 889 749
1423 254 214
1424 1005 905
1425 402 362
1426 1206 1086
1427 603 543
1428 402 362
1429 804 724
1430 1206 1086
1431 254 214
1432 1809 1629
1433 804 724
1434 1016 856
1435 635 535
1436 762 642
1437 1005 905
1438 381 321
1439 1270 1070
1440 1608 1448
1441 201 181
1442 1016 856
1443 1270 1070
1444 1005 905
1445 1206 1086
1446 1407 1267
1447 1809 1629
1448 762 642
1449 201 181
1450 1016 856
1451 1608 1448
1452 635 535
1453 402 362
1454 1016 856
1455 804 724
1456 508 428
1457 635 535
1458 2010 1810
1459 201 181
1460 127 107
1461 1809 1629
1462 603 543
1463 2010 1810
1464 1206 1086
1465 1143 963
1466 603 543
1467 1016 856
1468 1206 1086
1469 762 642
1470 1809 1629
1471 1608 1448
1472 508 428
1473 635 535
1474 1143 963
1475 2010 1810
1476 254 214
1477 603 543
1478 762 642
1479 381 321
1480 254 214
1481 1005 905
1482 127 107
1483 201 181
1484 635 535
1485 381 321
1486 2010 1810
1487 603 543
1488 603 543
1489 1143 963
1490 1809 1629
1491 381 321
1492 2010 1810
1493 1143 963
1494 201 181
1495 889 749
1496 201 181
1497 127 107
1498 127 107
1499 1407 1267
1500 508 428
1501 804 724
1502 1270 1070
1503 1809 1629
1504 804 724
1505 381 321
1506 889 749
1507 127 107
1508 254 214
1509 1270 1070
1510 381 321
1511 1270 1070
1512 1143 963
1513 635 535
1514 2010 1810
1515 201 181
1516 762 642
1517 1016 856
1518 1270 1070
1519 804 724
1520 381 321
1521 1809 1629
1522 127 107
1523 762 642
1524 381 321
1525 1206 1086
1526 762 642
1527 603 543
1528 762 642
1529 1005 905
1530 402 362
1531 508 428
1532 1270 1070
1533 1608 1448
1534 508 428
1535 381 321
1536 2010 1810
1537 1206 1086
1538 508 428
1539 889 749
1540 201 181
1541 1143 963
1542 804 724
1543 508 428
1544 2010 1810
1545 1608 1448
1546 1005 905
1547 889 749
1548 1206 1086
1549 1809 1629
1550 1270 1070
1551 1143 963
1552 603 543
1553 201 181
1554 254 214
1555 762 642
1556 201 181
1557 508 428
1558 1005 905
1559 508 428
1560 1016 856
1561 762 642
1562 201 181
1563 889 749
1564 1407 1267
1565 2010 1810
1566 603 543
1567 1016 856
1568 1809 1629
1569 1005 905
1570 1016 856
1571 254 214
1572 402 362
1573 127 107
1574 1016 856
1575 1809 1629
1576 254 214
1577 201 181
1578 201 181
1579 889 749
1580 1407 1267
1581 762 642
1582 635 535
1583 1270 1070
1584 2010 1810
1585 1143 963
1586 2010 1810
1587 1608 1448
1588 508 428
1589 381 321
1590 201 181
1591 1143 963
1592 127 107
1593 201 181
1594 508 428
1595 1809 1629
1596 2010 1810
1597 381 321
1598 635 535
1599 1407 1267
1600 1407 1267
1601 127 107
1602 508 428
1603 889 749
1604 1809 1629
1605 2010 1810
1606 1809 1629
1607 2010 1810
1608 1005 905
1609 381 321
1610 1005 905
1611 1407 1267
1612 635 535
1613 508 428
1614 402 362
1615 508 428
1616 127 107
1617 1016 856
1618 804 724
1619 508 428
1620 1016 856
1621 1005 905
1622 804 724
1623 1005 905
1624 381 321
1625 254 214
1626 381 321
1627 127 107
1628 603 543
1629 381 321
1630 889 749
1631 1206 1086
1632 1143 963
1633 1016 856
1634 508 428
1635 2010 1810
1636 254 214
1637 402 362
1638 603 543
1639 1016 856
1640 1016 856
1641 254 214
1642 762 642
1643 1016 856
1644 1407 1267
1645 1143 963
1646 1407 1267
1647 804 724
1648 603 543
1649 508 428
1650 889 749
1651 1608 1448
1652 635 535
1653 2010 1810
1654 127 107
1655 603 543
1656 1809 1629
1657 1143 963
1658 1005 905
1659 635 535
1660 1407 1267
1661 1143 963
1662 1143 963
1663 1143 963
1664 1407 1267
1665 508 428
1666 762 642
1667 1270 1070
1668 254 214
1669 889 749
1670 635 535
1671 889 749
1672 804 724
1673 889 749
1674 254 214
1675 635 535
1676 381 321
1677 402 362
1678 127 107
1679 1270 1070
1680 1005 905
1681 1143 963
1682 889 749
1683 1206 1086
1684 635 535
1685 201 181
1686 201 181
1687 762 642
1688 1143 963
1689 1005 905
1690 254 214
1691 762 642
1692 201 181
1693 1005 905
1694 635 535
1695 1407 1267
1696 254 214
1697 1016 856
1698 1143 963
1699 402 362
1700 603 543
1701 1206 1086
1702 508 428
1703 201 181
1704 254 214
1705 1016 856
1706 2010 1810
1707 254 214
1708 804 724
1709 402 362
1710 201 181
1711 2010 1810
1712 381 321
1713 1016 856
1714 1608 1448
1715 402 362
1716 1407 1267
1717 254 214
1718 804 724
1719 381 321
1720 2010 1810
1721 508 428
1722 1206 1086
1723 1270 1070
1724 889 749
1725 127 107
1726 804 724
1727 1005 905
1728 1809 1629
1729 381 321
1730 1143 963
1731 2010 1810
1732 254 214
1733 889 749
1734 1143 963
1735 762 642
1736 201 181
1737 2010 1810
1738 1407 1267
1739 603 543
1740 127 107
1741 603 543
1742 1016 856
1743 508 428
1744 2010 1810
1745 889 749
1746 1608 1448
1747 804 724
1748 603 543
1749 254 214
1750 603 543
1751 1270 1070
1752 1206 1086
1753 1016 856
1754 804 724
1755 127 107
1756 1143 963
1757 889 749
1758 1407 1267
1759 201 181
1760 1206 1086
1761 1016 856
1762 381 321
1763 1407 1267
1764 2010 1810
1765 1143 963
1766 381 321
1767 201 181
1768 1206 1086
1769 889 749
1770 1143 963
1771 1407 1267
1772 201 181
1773 1143 963
1774 1407 1267
1775 201 181
1776 889 749
1777 127 107
1778 635 535
1779 889 749
1780 889 749
1781 402 362
1782 201 181
1783 1809 1629
1784 1143 963
1785 201 181
1786 1016 856
1787 635 535
1788 635 535
1789 1809 1629
1790 1407 1267
1791 889 749
1792 762 642
1793 1270 1070
1794 1143 963
1795 201 181
1796 1206 1086
1797 127 107
1798 1270 1070
1799 127 107
1800 889 749
1801 1016 856
1802 254 214
1803 1407 1267
1804 1143 963
1805 1016 856
1806 1608 1448
1807 804 724
1808 635 535
1809 804 724
1810 508 428
1811 804 724
1812 603 543
1813 2010 1810
1814 254 214
1815 1407 1267
1816 127 107
1817 1809 1629
1818 1270 1070
1819 1270 1070
1820 1005 905
1821 127 107
1822 1016 856
1823 762 642
1824 1608 1448
1825 1206 1086
1826 127 107
1827 127 107
1828 1407 1267
1829 127 107
1830 1206 1086
1831 1270 1070
1832 1407 1267
1833 127 107
1834 603 543
1835 635 535
1836 1143 963
1837 1016 856
1838 889 749
1839 201 181
1840 1005 905
1841 1407 1267
1842 1005 905
1843 2010 1810
1844 402 362
1845 1809 1629
1846 127 107
1847 127 107
1848 635 535
1849 603 543
1850 1005 905
1851 2010 1810
1852 804 724
1853 889 749
1854 1407 1267
1855 402 362
1856 1407 1267
1857 603 543
1858 1005 905
1859 402 362
1860 635 535
1861 402 362
1862 762 642
1863 1809 1629
1864 1407 1267
1865 381 321
1866 1608 1448
1867 254 214
1868 2010 1810
1869 381 321
1870 603 543
1871 508 428
1872 1005 905
1873 1608 1448
1874 508 428
1875 381 321
1876 1270 1070
1877 508 428
1878 635 535
1879 508 428
1880 1005 905
1881 603 543
1882 381 321
1883 1143 963
1884 1016 856
1885 603 543
1886 1407 1267
1887 1809 1629
1888 1270 1070
1889 1143 963
1890 201 181
1891 402 362
1892 1005 905
1893 1809 1629
1894 201 181
1895 402 362
1896 381 321
1897 2010 1810
1898 381 321
1899 1005 905
1900 804 724
1901 201 181
1902 635 535
1903 508 428
1904 508 428
1905 762 642
1906 2010 1810
1907 889 749
1908 1270 1070
1909 635 535
1910 1016 856
1911 1005 905
1912 1608 1448
1913 1005 905
1914 1206 1086
1915 1809 1629
1916 635 535
1917 381 321
1918 762 642
1919 254 214
1920 1005 905
1921 508 428
1922 402 362
1923 889 749
1924 201 181
1925 508 428
1926 1016 856
1927 1407 1267
1928 1407 1267
1929 1407 1267
1930 1016 856
1931 1016 856
1932 381 321
1933 1608 1448
1934 508 428
1935 508 428
1936 1809 1629
1937 804 724
1938 201 181
1939 2010 1810
1940 381 321
1941 2010 1810
1942 1407 1267
1943 889 749
1944 201 181
1945 1608 1448
1946 201 181
1947 1206 1086
1948 381 321
1949 201 181
1950 889 749
1951 508 428
1952 1143 963
1953 1407 1267
1954 1407 1267
1955 762 642
1956 1407 1267
1957 889 749
1958 508 428
1959 201 181
1960 508 428
1961 1143 963
1962 127 107
1963 1809 1629
1964 402 362
1965 508 428
1966 1005 905
1967 1206 1086
1968 1608 1448
1969 1407 1267
1970 1270 1070
1971 635 535
1972 762 642
1973 1407 1267
1974 1143 963
1975 804 724
1976 635 535
1977 1608 1448
1978 889 749
1979 635 535
1980 1407 1267
1981 1809 1629
1982 635 535
1983 201 181
1984 254 214
1985 1206 1086
1986 254 214
1987 2010 1810
1988 889 749
1989 804 724
1990 201 181
1991 402 362
1992 804 724
1993 381 321
1994 381 321
1995 889 749
1996 1407 1267
1997 402 362
1998 1016 856
1999 804 724
2000 1206 1086
